## Define Basic Parameters
##

	newton on
	boundary	 	 p p p
	units	 	 	 metal
	atom_style	 	 atomic

	processors * * *

##
## Set Common Simulation Parameters
##

# SNAP Potential Model
	variable	NumberSnapCoeffs	equal	31			#Set which SNAP parameterization to use (Only model with 31 parameters so far)

# Thermodynamic Properties
	variable 	SetTemp 			equal   300			#Set desired system temperature	(Kelvin)

# Set simulation size. For large simulations, total atoms = X*Y*Z*3. Going smaller than the minimum will result in PBC artifacts.
	variable 	xUnitCells			equal   4			#Set number of unit cells in x direction (min 4)
	variable 	yUnitCells	 		equal   4			#Set number of unit cells in y direction (min 4)
	variable 	zUnitCells	 		equal  	4			#Set number of unit cells in z direction (min 4)

# Set step size for time integration
	variable	TimeStep		 	equal  0.00025			#Set integration timestep (ps). Smaller steps improve numerical stability.

# Set intervals for data collection
	variable	thermoSampleTime 	equal  250			#Set how often to sample thermo and spacial thermo
	variable	vidSampleTime	 	equal  250			#Set how often to sample atom coordinates for video frames. Load lammpstrj file in Visual Molecular Dynamics (VMD) to watch simulation progress.

# Simulation run time
	variable	MinimizeSteps		equal 	500			#Set how many steps of minimization to run
	variable 	RunTime				equal   20000		#Set number of timesteps for main runtime


##
##	Setup Simulation
##


# Create FCC lattice.
lattice fcc 4.466

# Create region and box.
region box prism 0 ${xUnitCells} 0 ${yUnitCells} 0 ${zUnitCells} 0 0 0 units lattice  
create_box 1 box  

# Create atom type 1 in the box.
create_atoms 1 box

# Argon mass.
mass 1 39.948 

# Neighbor settings.
neighbor 2.0 bin
neigh_modify	every 1 delay 0 check yes

# SNAP pair style.
pair_style snap
pair_coeff * * coeff.${NumberSnapCoeffs}.snapcoeff param.${NumberSnapCoeffs}.snapparam Ar

# Initialize velocity, thermo settings, timestep and ensemble.
velocity	 all create 100 999247324 dist gaussian rot yes mom yes
thermo  	 ${thermoSampleTime}
thermo_style custom step temp press etotal pxx pyy pzz pe ke spcpu 
fix 1 all nve
timestep  ${TimeStep}

	 	 	  
# Set parameters for Atom trajectory file (Used to generate videos in Visual Molecular Dynamics)
	dump	  	1 all custom ${vidSampleTime} xyz.Pos_data.lammpstrj id type xs ys zs x y z	


##	
## Run Simulation
##

# Run a quick minimize to make sure atoms are near equilibrium positions
#	minimize	1.0e-10 1.0e-10 ${MinimizeSteps} ${MinimizeSteps} 

# Recheck that the allocation of molecules to each MPI node is roughly equal every 10000 timesteps.
	fix	balancer all	balance 10000 1.025 shift xyz	10 1.025	

# Run Simulation
	run ${RunTime}
